words_hard_train/7467.qaiger
aag 91 16 0 1 75
2
4
12
14
18
22
26
30
34
48
58
80
88
104
120
136
182
6 2 4
8 3 5
10 7 9
16 13 15
20 16 19
24 20 23
28 24 27
32 28 31
36 32 35
38 10 36
40 11 37
42 39 41
44 33 34
46 45 37
50 46 48
52 42 51
54 29 30
56 55 33
60 56 58
62 53 61
64 47 49
66 51 65
68 63 67
70 43 65
72 69 71
74 57 59
76 74 67
78 77 61
82 80 12
84 12 14
86 85 17
90 87 89
92 86 88
94 91 93
96 82 94
98 97 93
100 17 18
102 101 21
106 103 105
108 102 104
110 107 109
112 99 110
114 113 109
116 21 22
118 117 25
122 119 121
124 118 120
126 123 125
128 115 126
130 129 125
132 25 26
134 133 29
138 135 137
140 134 136
142 139 141
144 131 142
146 145 141
148 78 146
150 72 149
152 83 95
154 153 97
156 93 111
158 154 157
160 158 113
162 160 129
164 109 127
166 162 165
168 130 143
170 169 145
172 167 171
174 61 75
176 174 66
178 177 147
180 172 179
182 150 180
i0 2 y1[7]
i1 1 x2[7]
i2 2 y1[0]
i3 2 y1[1]
i4 2 y1[2]
i5 2 y1[3]
i6 2 y1[4]
i7 2 y1[5]
i8 2 y1[6]
i9 1 x2[6]
i10 1 x2[5]
i11 1 x2[0]
i12 1 x2[1]
i13 1 x2[2]
i14 1 x2[3]
i15 1 x2[4]
o0 bv[0]
c
simplified
  <=
    add
      unary minus
        2 y1
      1 x2
    or
      141
      1
