words_hard_train/7467.qaiger.qdimacs
p cnf 91 226
a 2 68 40 44 52 24 60 29 0
e 1 3 4 5 6 7 8 9 10 11 12 13 14 15 16 17 18 19 20 21 22 23 25 26 27 28 30 31 32 33 34 35 36 37 38 39 41 42 43 45 46 47 48 49 50 51 53 54 55 56 57 58 59 61 62 63 64 65 66 67 69 70 71 72 73 74 75 76 77 78 79 80 81 82 83 84 85 86 87 88 89 90 91 0
-1 -2 3 0
1 -3 0
2 -3 0
1 2 4 0
-1 -4 0
-2 -4 0
3 4 5 0
-3 -5 0
-4 -5 0
6 7 8 0
-6 -8 0
-7 -8 0
-8 9 10 0
8 -10 0
-9 -10 0
-10 11 12 0
10 -12 0
-11 -12 0
-12 13 14 0
12 -14 0
-13 -14 0
-14 15 16 0
14 -16 0
-15 -16 0
-16 17 18 0
16 -18 0
-17 -18 0
-5 -18 19 0
5 -19 0
18 -19 0
5 18 20 0
-5 -20 0
-18 -20 0
19 20 21 0
-19 -21 0
-20 -21 0
16 -17 22 0
-16 -22 0
17 -22 0
22 18 23 0
-22 -23 0
-18 -23 0
-23 -24 25 0
23 -25 0
24 -25 0
-21 25 26 0
21 -26 0
-25 -26 0
14 -15 27 0
-14 -27 0
15 -27 0
27 16 28 0
-27 -28 0
-16 -28 0
-28 -29 30 0
28 -30 0
29 -30 0
26 30 31 0
-26 -31 0
-30 -31 0
23 24 32 0
-23 -32 0
-24 -32 0
25 32 33 0
-25 -33 0
-32 -33 0
31 33 34 0
-31 -34 0
-33 -34 0
21 32 35 0
-21 -35 0
-32 -35 0
34 35 36 0
-34 -36 0
-35 -36 0
28 29 37 0
-28 -37 0
-29 -37 0
-37 33 38 0
37 -38 0
-33 -38 0
38 30 39 0
-38 -39 0
-30 -39 0
-40 -6 41 0
40 -41 0
6 -41 0
-6 -7 42 0
6 -42 0
7 -42 0
42 8 43 0
-42 -43 0
-8 -43 0
43 44 45 0
-43 -45 0
-44 -45 0
-43 -44 46 0
43 -46 0
44 -46 0
45 46 47 0
-45 -47 0
-46 -47 0
-41 -47 48 0
41 -48 0
47 -48 0
48 46 49 0
-48 -49 0
-46 -49 0
8 -9 50 0
-8 -50 0
9 -50 0
50 10 51 0
-50 -51 0
-10 -51 0
51 52 53 0
-51 -53 0
-52 -53 0
-51 -52 54 0
51 -54 0
52 -54 0
53 54 55 0
-53 -55 0
-54 -55 0
49 -55 56 0
-49 -56 0
55 -56 0
56 54 57 0
-56 -57 0
-54 -57 0
10 -11 58 0
-10 -58 0
11 -58 0
58 12 59 0
-58 -59 0
-12 -59 0
59 60 61 0
-59 -61 0
-60 -61 0
-59 -60 62 0
59 -62 0
60 -62 0
61 62 63 0
-61 -63 0
-62 -63 0
57 -63 64 0
-57 -64 0
63 -64 0
64 62 65 0
-64 -65 0
-62 -65 0
12 -13 66 0
-12 -66 0
13 -66 0
66 14 67 0
-66 -67 0
-14 -67 0
67 68 69 0
-67 -69 0
-68 -69 0
-67 -68 70 0
67 -70 0
68 -70 0
69 70 71 0
-69 -71 0
-70 -71 0
65 -71 72 0
-65 -72 0
71 -72 0
72 70 73 0
-72 -73 0
-70 -73 0
-39 -73 74 0
39 -74 0
73 -74 0
-36 74 75 0
36 -75 0
-74 -75 0
41 47 76 0
-41 -76 0
-47 -76 0
76 48 77 0
-76 -77 0
-48 -77 0
46 55 78 0
-46 -78 0
-55 -78 0
-77 78 79 0
77 -79 0
-78 -79 0
-79 56 80 0
79 -80 0
-56 -80 0
-80 64 81 0
80 -81 0
-64 -81 0
54 63 82 0
-54 -82 0
-63 -82 0
-81 82 83 0
81 -83 0
-82 -83 0
-65 71 84 0
65 -84 0
-71 -84 0
84 72 85 0
-84 -85 0
-72 -85 0
83 85 86 0
-83 -86 0
-85 -86 0
30 37 87 0
-30 -87 0
-37 -87 0
-87 -33 88 0
87 -88 0
33 -88 0
88 73 89 0
-88 -89 0
-73 -89 0
-86 89 90 0
86 -90 0
-89 -90 0
-75 -90 91 0
75 -91 0
90 -91 0
91 0
